data_C6F10justsolved

_pd_block_id    C6F10justsolved
#==============================================================================
_diffrn_radiation_probe                neutrons
_diffrn_radiation_wavelength            1.9090

#  The following profile R-factors are NOT CORRECTED for background
#  The sum is extended to all non-excluded points.
#  These are the current CIF standard

_pd_proc_ls_prof_R_factor               26.4160
_pd_proc_ls_prof_wR_factor              37.5984
_pd_proc_ls_prof_wR_expected             6.6833

#  The following profile R-factors are CORRECTED for background
#  The sum is extended to all non-excluded points.
#  These items are not in the current CIF standard, but are defined above

_pd_proc_ls_prof_cR_factor               26.4160
_pd_proc_ls_prof_cwR_factor              37.5984
_pd_proc_ls_prof_cwR_expected             6.6833

#  The following items are not in the CIF standard, but are defined above

_pd_proc_ls_prof_chi2                31.6483
_pd_proc_ls_prof_echi2               31.6483

#  Items related to LS refinement

_refine_ls_R_I_factor                23.8720
_refine_ls_R_F_factor                16.1
_refine_ls_number_reflns                   151
_refine_ls_number_parameters                 2
_refine_ls_number_restraints                 0

_pd_proc_ls_background_function
;   FullProf Background function number
;

_exptl_absorpt_process_details
;   FullProf Absorption/surface roughness correction
 No correction is applied
;

_pd_proc_ls_profile_function
;
;
_pd_proc_ls_peak_cutoff 0.00500
_pd_calc_method  "   Rietveld Refinement"

#---- raw/calc data loop -----
_pd_meas_2theta_range_min    11.5550
_pd_meas_2theta_range_max    54.9380
_pd_meas_2theta_range_inc     0.1166
_pd_proc_2theta_range_min    11.5550
_pd_proc_2theta_range_max    54.9380
_pd_proc_2theta_range_inc     0.1166

loop_
_pd_proc_point_id
_pd_proc_2theta_corrected
_pd_proc_intensity_total
_pd_calc_intensity_total
_pd_proc_intensity_bkg_calc

1 11.5550 1(1000) 0.0034 0.0000
2 11.6716 1(1000) 0.0164 0.0000
3 11.7882 1(1000) 0.0637 0.0000
4 11.9049 1.0(10) 0.1990 0.0000
5 12.0215 2.0(14) 0.4978 0.0000
6 12.1381 3.0(17) 0.9975 0.0000
7 12.2547 4(2) 1.6012 0.0000
8 12.3713 5(2) 2.0588 0.0000
9 12.4880 5(2) 2.1207 0.0000
10 12.6046 3.0(17) 1.7498 0.0000
11 12.7212 2.0(14) 1.1566 0.0000
12 12.8378 1.0(10) 0.6124 0.0000
13 12.9544 1(1000) 0.2598 0.0000
14 13.0711 1(1000) 0.0883 0.0000
15 13.1877 1(1000) 0.0240 0.0000
16 13.3043 1(1000) 0.0053 0.0000
17 13.4209 1(1000) 0.0009 0.0000
18 13.5375 1(1000) 0.0001 0.0000
19 13.6542 1(1000) 0.0000 0.0000
20 13.7708 1(1000) 0.0000 0.0000
21 13.8874 1(1000) 0.0001 0.0000
22 14.0040 1(1000) 0.0001 0.0000
23 14.1206 1(1000) 0.0001 0.0000
24 14.2373 1(1000) 0.0001 0.0000
25 14.3539 1(1000) 0.0001 0.0000
26 14.4705 1(1000) 0.0001 0.0000
27 14.5871 1(1000) 0.0001 0.0000
28 14.7037 1(1000) 0.0001 0.0000
29 14.8204 1(1000) 0.0001 0.0000
30 14.9370 1(1000) 0.0001 0.0000
31 15.0536 1(1000) 0.0001 0.0000
32 15.1702 1(1000) 0.0001 0.0000
33 15.2868 1(1000) 0.0001 0.0000
34 15.4035 1(1000) 0.0001 0.0000
35 15.5201 1(1000) 0.0001 0.0000
36 15.6367 1(1000) 0.0001 0.0000
37 15.7533 1(1000) 0.0002 0.0000
38 15.8699 1(1000) 0.0002 0.0000
39 15.9866 1(1000) 0.0002 0.0000
40 16.1032 1(1000) 0.0002 0.0000
41 16.2198 1(1000) 0.0002 0.0000
42 16.3364 1(1000) 0.0002 0.0000
43 16.4530 1(1000) 0.0002 0.0000
44 16.5697 1(1000) 0.0003 0.0000
45 16.6863 1(1000) 0.0003 0.0000
46 16.8029 1(1000) 0.0004 0.0000
47 16.9195 1(1000) 0.0015 0.0000
48 17.0361 1(1000) 0.0112 0.0000
49 17.1528 1(1000) 0.0851 0.0000
50 17.2694 1.0(10) 0.5351 0.0000
51 17.3860 3.0(17) 2.7049 0.0000
52 17.5026 12(3) 10.9614 0.0000
53 17.6192 39(6) 35.5899 0.0000
54 17.7359 101(10) 92.5887 0.0000
55 17.8525 210(14) 193.0668 0.0000
56 17.9691 352(19) 323.0857 0.0000
57 18.0857 474(22) 435.5567 0.0000
58 18.2023 521(23) 478.5907 0.0000
59 18.3190 485(22) 443.2199 0.0000
60 18.4356 421(21) 375.0180 0.0000
61 18.5522 396(20) 328.3773 0.0000
62 18.6688 428(21) 314.9606 0.0000
63 18.7854 477(22) 306.7291 0.0000
64 18.9021 493(22) 287.9402 0.0000
65 19.0187 477(22) 298.2080 0.0000
66 19.1353 498(22) 422.2378 0.0000
67 19.2519 642(25) 724.3472 0.0000
68 19.3685 927(30) 1164.1667 0.0000
69 19.4852 1249(35) 1572.7053 0.0000
70 19.6018 1444(38) 1757.8253 0.0000
71 19.7184 1423(38) 1669.5107 0.0000
72 19.8350 1247(35) 1435.0966 0.0000
73 19.9516 1034(32) 1209.1266 0.0000
74 20.0683 842(29) 1026.6005 0.0000
75 20.1849 654(26) 829.6338 0.0000
76 20.3015 453(21) 589.3116 0.0000
77 20.4181 265(16) 349.3324 0.0000
78 20.5347 127(11) 168.6214 0.0000
79 20.6514 49(7) 65.6150 0.0000
80 20.7680 15(4) 20.5025 0.0000
81 20.8846 4(2) 5.1373 0.0000
82 21.0012 1.0(10) 1.0322 0.0000
83 21.1178 1(1000) 0.1668 0.0000
84 21.2345 1(1000) 0.0222 0.0000
85 21.3511 1(1000) 0.0030 0.0000
86 21.4677 1(1000) 0.0009 0.0000
87 21.5843 1(1000) 0.0007 0.0000
88 21.7009 1(1000) 0.0006 0.0000
89 21.8176 1(1000) 0.0006 0.0000
90 21.9342 1(1000) 0.0006 0.0000
91 22.0508 1(1000) 0.0006 0.0000
92 22.1674 1(1000) 0.0006 0.0000
93 22.2840 1.0(10) 0.0006 0.0000
94 22.4007 3.0(17) 0.0006 0.0000
95 22.5173 6(2) 0.0006 0.0000
96 22.6339 9(3) 0.0006 0.0000
97 22.7505 10(3) 0.0007 0.0000
98 22.8671 10(3) 0.0008 0.0000
99 22.9838 8(3) 0.0012 0.0000
100 23.1004 5(2) 0.0051 0.0000
101 23.2170 3.0(17) 0.0414 0.0000
102 23.3336 2.0(14) 0.3152 0.0000
103 23.4502 8(3) 1.9599 0.0000
104 23.5669 30(5) 9.7906 0.0000
105 23.6835 96(10) 39.2011 0.0000
106 23.8001 249(16) 125.7679 0.0000
107 23.9167 524(23) 323.2979 0.0000
108 24.0333 901(30) 666.0582 0.0000
109 24.1500 1272(36) 1100.7303 0.0000
110 24.2666 1493(39) 1463.8693 0.0000
111 24.3832 1505(39) 1584.0801 0.0000
112 24.4998 1405(37) 1446.7030 0.0000
113 24.6164 1361(37) 1234.0536 0.0000
114 24.7331 1455(38) 1164.8566 0.0000
115 24.8497 1609(40) 1288.3285 0.0000
116 24.9663 1671(41) 1443.5959 0.0000
117 25.0829 1548(39) 1420.4908 0.0000
118 25.1995 1260(35) 1153.4955 0.0000
119 25.3162 897(30) 757.6329 0.0000
120 25.4328 555(24) 400.1054 0.0000
121 25.5494 294(17) 169.5840 0.0000
122 25.6660 132(11) 57.6634 0.0000
123 25.7826 50(7) 15.7301 0.0000
124 25.8993 15(4) 3.4444 0.0000
125 26.0159 4(2) 0.6064 0.0000
126 26.1325 1.0(10) 0.0865 0.0000
127 26.2491 1(1000) 0.0107 0.0000
128 26.3657 1(1000) 0.0028 0.0000
129 26.4824 1(1000) 0.0092 0.0000
130 26.5990 1(1000) 0.0508 0.0000
131 26.7156 1.0(10) 0.2431 0.0000
132 26.8322 4(2) 0.9622 0.0000
133 26.9488 12(3) 3.1815 0.0000
134 27.0655 33(6) 8.9840 0.0000
135 27.1821 76(9) 22.2092 0.0000
136 27.2987 148(12) 48.8044 0.0000
137 27.4153 246(16) 94.9509 0.0000
138 27.5319 353(19) 160.2177 0.0000
139 27.6486 434(21) 228.5663 0.0000
140 27.7652 455(21) 269.9178 0.0000
141 27.8818 401(20) 260.1390 0.0000
142 27.9984 294(17) 202.8882 0.0000
143 28.1150 177(13) 127.4495 0.0000
144 28.2317 87(9) 64.3354 0.0000
145 28.3483 35(6) 26.1846 0.0000
146 28.4649 13(4) 9.3302 0.0000
147 28.5815 12(3) 6.5004 0.0000
148 28.6981 30(5) 17.5561 0.0000
149 28.8148 77(9) 55.0840 0.0000
150 28.9314 164(13) 142.9304 0.0000
151 29.0480 287(17) 299.3364 0.0000
152 29.1646 411(20) 504.6062 0.0000
153 29.2812 484(22) 683.8726 0.0000
154 29.3979 467(22) 744.4394 0.0000
155 29.5145 370(19) 650.4583 0.0000
156 29.6311 239(15) 455.9711 0.0000
157 29.7477 127(11) 256.4107 0.0000
158 29.8643 57(8) 115.9409 0.0000
159 29.9810 25(5) 43.1349 0.0000
160 30.0976 18(4) 15.7717 0.0000
161 30.2142 23(5) 10.5567 0.0000
162 30.3308 33(6) 13.5682 0.0000
163 30.4474 40(6) 17.6640 0.0000
164 30.5641 42(6) 18.9999 0.0000
165 30.6807 38(6) 16.4424 0.0000
166 30.7973 29(5) 11.5080 0.0000
167 30.9139 22(5) 7.0941 0.0000
168 31.0305 22(5) 6.6260 0.0000
169 31.1472 40(6) 16.0659 0.0000
170 31.2638 87(9) 48.0187 0.0000
171 31.3804 168(13) 121.3965 0.0000
172 31.4970 271(16) 247.3316 0.0000
173 31.6136 363(19) 404.1705 0.0000
174 31.7303 405(20) 529.4434 0.0000
175 31.8469 380(19) 555.9615 0.0000
176 31.9635 305(17) 468.1276 0.0000
177 32.0801 216(15) 316.3225 0.0000
178 32.1967 142(12) 171.9178 0.0000
179 32.3134 89(9) 75.8357 0.0000
180 32.4300 54(7) 28.9178 0.0000
181 32.5466 37(6) 14.4292 0.0000
182 32.6632 37(6) 18.4646 0.0000
183 32.7798 53(7) 33.8596 0.0000
184 32.8965 78(9) 54.4092 0.0000
185 33.0131 97(10) 70.7941 0.0000
186 33.1297 99(10) 73.9813 0.0000
187 33.2463 82(9) 62.3237 0.0000
188 33.3629 57(8) 43.7363 0.0000
189 33.4796 42(6) 30.9292 0.0000
190 33.5962 54(7) 36.2337 0.0000
191 33.7128 104(10) 69.3001 0.0000
192 33.8294 189(14) 132.2108 0.0000
193 33.9460 288(17) 210.2180 0.0000
194 34.0627 360(19) 270.8564 0.0000
195 34.1793 371(19) 283.4619 0.0000
196 34.2959 322(18) 245.0475 0.0000
197 34.4125 243(16) 183.1653 0.0000
198 34.5291 171(13) 131.0549 0.0000
199 34.6458 121(11) 102.3626 0.0000
200 34.7624 94(10) 88.6594 0.0000
201 34.8790 76(9) 75.2293 0.0000
202 34.9956 58(8) 55.8069 0.0000
203 35.1122 39(6) 34.3775 0.0000
204 35.2289 23(5) 17.8405 0.0000
205 35.3455 14(4) 10.6996 0.0000
206 35.4621 20(4) 17.3897 0.0000
207 35.5787 53(7) 48.6529 0.0000
208 35.6953 132(11) 122.9114 0.0000
209 35.8120 270(16) 253.1901 0.0000
210 35.9286 447(21) 421.6971 0.0000
211 36.0452 599(24) 567.7751 0.0000
212 36.1618 649(25) 618.4631 0.0000
213 36.2784 576(24) 546.1035 0.0000
214 36.3951 428(21) 393.4695 0.0000
215 36.5117 289(17) 236.6931 0.0000
216 36.6283 209(14) 127.9749 0.0000
217 36.7449 181(13) 74.3588 0.0000
218 36.8615 172(13) 57.0846 0.0000
219 36.9782 160(13) 57.4771 0.0000
220 37.0948 145(12) 65.3550 0.0000
221 37.2114 132(11) 73.7099 0.0000
222 37.3280 123(11) 75.2122 0.0000
223 37.4446 111(11) 66.7429 0.0000
224 37.5613 96(10) 54.2458 0.0000
225 37.6779 82(9) 49.6126 0.0000
226 37.7945 78(9) 61.5139 0.0000
227 37.9111 83(9) 87.8767 0.0000
228 38.0277 94(10) 115.6780 0.0000
229 38.1444 101(10) 129.0850 0.0000
230 38.2610 98(10) 120.4549 0.0000
231 38.3776 85(9) 94.6902 0.0000
232 38.4942 64(8) 63.5558 0.0000
233 38.6108 43(7) 36.9040 0.0000
234 38.7275 25(5) 18.6827 0.0000
235 38.8441 12(3) 8.3133 0.0000
236 38.9607 6(2) 3.6696 0.0000
237 39.0773 5(2) 3.3843 0.0000
238 39.1939 12(3) 8.2962 0.0000
239 39.3106 33(6) 21.6641 0.0000
240 39.4272 74(9) 46.6418 0.0000
241 39.5438 135(12) 80.7941 0.0000
242 39.6604 202(14) 112.4669 0.0000
243 39.7770 244(16) 126.0294 0.0000
244 39.8937 241(16) 114.4363 0.0000
245 40.0103 195(14) 86.4983 0.0000
246 40.1269 135(12) 60.5963 0.0000
247 40.2435 86(9) 52.0063 0.0000
248 40.3601 62(8) 65.2521 0.0000
249 40.4768 58(8) 93.6662 0.0000
250 40.5934 66(8) 123.4490 0.0000
251 40.7100 82(9) 141.9561 0.0000
252 40.8266 105(10) 147.0302 0.0000
253 40.9432 135(12) 148.1842 0.0000
254 41.0599 175(13) 157.1840 0.0000
255 41.1765 230(15) 179.9578 0.0000
256 41.2931 313(18) 218.4487 0.0000
257 41.4097 421(21) 272.5038 0.0000
258 41.5263 525(23) 331.8248 0.0000
259 41.6430 570(24) 370.2603 0.0000
260 41.7596 525(23) 359.7821 0.0000
261 41.8762 403(20) 295.0807 0.0000
262 41.9928 257(16) 200.8370 0.0000
263 42.1094 136(12) 112.7666 0.0000
264 42.2261 63(8) 53.9502 0.0000
265 42.3427 38(6) 29.1752 0.0000
266 42.4593 57(8) 35.4027 0.0000
267 42.5759 120(11) 70.5037 0.0000
268 42.6925 223(15) 129.2829 0.0000
269 42.8092 339(18) 194.2124 0.0000
270 42.9258 429(21) 239.6269 0.0000
271 43.0424 473(22) 255.6917 0.0000
272 43.1590 497(22) 268.7942 0.0000
273 43.2756 551(23) 326.2268 0.0000
274 43.3923 656(26) 447.1638 0.0000
275 43.5089 771(28) 586.2682 0.0000
276 43.6255 824(29) 657.2399 0.0000
277 43.7421 770(28) 604.6762 0.0000
278 43.8587 619(25) 451.7077 0.0000
279 43.9754 424(21) 273.8587 0.0000
280 44.0920 247(16) 135.2112 0.0000
281 44.2086 121(11) 54.6572 0.0000
282 44.3252 49(7) 18.2101 0.0000
283 44.4418 17(4) 5.0357 0.0000
284 44.5585 5(2) 1.1649 0.0000
285 44.6751 1.0(10) 0.2427 0.0000
286 44.7917 1(1000) 0.1677 0.0000
287 44.9083 1.0(10) 0.8059 0.0000
288 45.0249 4(2) 3.9320 0.0000
289 45.1416 17(4) 15.4734 0.0000
290 45.2582 55(7) 48.8394 0.0000
291 45.3748 139(12) 123.7599 0.0000
292 45.4914 282(17) 252.4271 0.0000
293 45.6080 462(21) 416.7044 0.0000
294 45.7247 614(25) 563.2123 0.0000
295 45.8413 672(26) 637.2507 0.0000
296 45.9579 624(25) 626.1685 0.0000
297 46.0745 514(23) 558.8494 0.0000
298 46.1911 395(20) 465.9979 0.0000
299 46.3078 293(17) 359.5670 0.0000
300 46.4244 212(15) 249.7987 0.0000
301 46.5410 154(12) 159.6488 0.0000
302 46.6576 125(11) 112.5385 0.0000
303 46.7742 122(11) 112.9929 0.0000
304 46.8909 134(12) 141.6956 0.0000
305 47.0075 143(12) 166.9060 0.0000
306 47.1241 141(12) 164.9637 0.0000
307 47.2407 137(12) 136.2400 0.0000
308 47.3573 149(12) 102.3354 0.0000
309 47.4740 185(14) 86.8610 0.0000
310 47.5906 232(15) 97.6918 0.0000
311 47.7072 263(16) 123.8613 0.0000
312 47.8238 261(16) 146.6127 0.0000
313 47.9404 229(15) 155.1684 0.0000
314 48.0571 189(14) 153.5579 0.0000
315 48.1737 160(13) 151.1718 0.0000
316 48.2903 144(12) 148.3046 0.0000
317 48.4069 129(11) 135.6529 0.0000
318 48.5235 109(10) 107.9017 0.0000
319 48.6402 91(10) 72.3634 0.0000
320 48.7568 86(9) 42.6348 0.0000
321 48.8734 98(10) 27.9125 0.0000
322 48.9900 118(11) 30.1573 0.0000
323 49.1066 137(12) 47.7455 0.0000
324 49.2233 150(12) 77.7554 0.0000
325 49.3399 158(13) 114.2255 0.0000
326 49.4565 165(13) 146.5610 0.0000
327 49.5731 171(13) 163.0891 0.0000
328 49.6897 180(13) 159.1205 0.0000
329 49.8064 201(14) 142.5121 0.0000
330 49.9230 242(16) 130.1322 0.0000
331 50.0396 298(17) 136.5797 0.0000
332 50.1562 359(19) 164.4952 0.0000
333 50.2728 407(20) 204.1947 0.0000
334 50.3895 430(21) 240.3514 0.0000
335 50.5061 422(21) 258.9648 0.0000
336 50.6227 388(20) 253.3851 0.0000
337 50.7393 348(19) 229.2073 0.0000
338 50.8559 319(18) 201.4118 0.0000
339 50.9726 306(17) 181.6234 0.0000
340 51.0892 294(17) 168.0517 0.0000
341 51.2058 269(16) 150.2509 0.0000
342 51.3224 226(15) 122.5892 0.0000
343 51.4390 171(13) 90.5425 0.0000
344 51.5557 119(11) 64.4491 0.0000
345 51.6723 79(9) 49.5645 0.0000
346 51.7889 53(7) 42.7702 0.0000
347 51.9055 38(6) 37.5602 0.0000
348 52.0221 30(5) 31.0051 0.0000
349 52.1388 30(5) 25.9863 0.0000
350 52.2554 40(6) 27.6159 0.0000
351 52.3720 56(7) 37.8668 0.0000
352 52.4886 74(9) 53.1294 0.0000
353 52.6052 89(9) 67.2466 0.0000
354 52.7219 100(10) 78.0872 0.0000
355 52.8385 119(11) 90.4301 0.0000
356 52.9551 154(12) 110.2816 0.0000
357 53.0717 205(14) 137.2435 0.0000
358 53.1883 270(16) 165.8915 0.0000
359 53.3050 348(19) 194.4644 0.0000
360 53.4216 441(21) 228.0974 0.0000
361 53.5382 539(23) 271.5630 0.0000
362 53.6548 614(25) 319.2509 0.0000
363 53.7714 634(25) 352.0644 0.0000
364 53.8881 577(24) 347.0134 0.0000
365 54.0047 452(21) 295.8716 0.0000
366 54.1213 299(17) 215.0527 0.0000
367 54.2379 163(13) 133.8490 0.0000
368 54.3545 73(9) 74.3924 0.0000
369 54.4712 26(5) 44.9561 0.0000
370 54.5878 8(3) 47.5591 0.0000
371 54.7044 2.0(14) 84.0188 0.0000
372 54.8210 1(1000) 150.0305 0.0000
_pd_proc_number_of_points 372




_cell_volume
766.1(3)
_cell_formula_units_Z
4
_symmetry_cell_setting
monoclinic
_chemical_name_systematic
;
decafluorocyclohex-1-ene
;
_cell_measurement_temperature
4.2
_symmetry_space_group_name_Hall
'-P 2yn'
_computing_structure_solution
ESPOIR
_cell_length_a
11.915(3)
_diffrn_measurement_device_type
diffractometer
_cell_length_b
7.247(2)
_cell_angle_gamma
90.00000
_cell_length_c
9.663(2)
_chemical_formula_moiety
'C6F10'
_diffrn_ambient_temperature
4.2
_cell_angle_alpha
90.00000
_cell_angle_beta
113.340(10)
_symmetry_space_group_name_H-M
'P 1 21/n 1'
_diffrn_radiation_type
'Constant Wavelength Neutron Diffraction'
_chemical_formula_weight
262.06
_chemical_formula_sum
'C6 F10'
loop_
_symmetry_equiv_pos_as_xyz
x,y,z
-x+1/2,y+1/2,-z+1/2
-x,-y,-z
x+1/2,-y+1/2,z+1/2

loop_
_atom_site_type_symbol
_atom_site_label
_atom_site_fract_x
_atom_site_fract_y
_atom_site_fract_z
C C1 0.72845 0.67937 -0.03636
C C2 0.79459 0.50981 0.04909
C C3 0.64935 0.63124 -0.19967
C C4 0.70362 0.36222 0.04943
C C5 0.57698 0.45780 -0.21471
C C6 0.60203 0.33546 -0.10224
F F1 0.65730 0.74970 0.03118
F F2 0.80947 0.81257 -0.03165
F F3 0.86815 0.55450 0.19251
F F4 0.86787 0.44193 -0.01641
F F5 0.72372 0.60968 -0.27536
F F6 0.57586 0.77712 -0.26519
F F7 0.76495 0.20232 0.10331
F F8 0.65484 0.41324 0.14964
F F9 0.48321 0.42257 -0.34763
F F10 0.53213 0.18233 -0.12617



loop_
_refln_index_h
_refln_index_k
_refln_index_l
_refln_mult
_pd_refln_phase_id
_refln_observed_status
_refln_f_squared_meas
_refln_f_squared_calc
_refln_phase_calc
_refln_d_spacing
-1 0 1 2 1 o 0.0946 0.0650 180.00 8.80603
1 1 0 4 1 o 15.5610 14.7417 0.00 6.04165
1 0 1 2 1 o 22.0272 18.6221 0.00 5.84980
0 1 1 4 1 o 56.3140 60.7592 0.00 5.61263
-1 1 1 4 1 o 0.2427 0.2634 180.00 5.59575
2 0 0 2 1 o 55.0931 61.1874 180.00 5.47000
1 1 1 4 1 o 0.0347 0.0311 0.00 4.55189
-2 1 1 4 1 o 92.0324 86.8817 180.00 4.52499
0 0 2 2 1 o 5.4998 5.1133 0.00 4.43614
-2 0 2 2 1 o 180.1338 165.0232 180.00 4.40302
2 1 0 4 1 o 0.0901 0.0775 0.00 4.36593
-1 1 2 4 1 o 2.6973 1.7131 180.00 4.01987
-3 0 1 2 1 o 50.5009 38.1746 180.00 3.97115
0 1 2 4 1 o 1.4364 1.5799 180.00 3.78355
-2 1 2 4 1 o 48.7571 58.6904 0.00 3.76294
0 2 0 2 1 o 5.0113 3.2949 180.00 3.62350
2 1 1 4 1 o 0.1459 0.1421 180.00 3.50300
-3 1 1 4 1 o 48.1607 52.2137 0.00 3.48256
1 2 0 4 1 o 0.2093 0.1934 0.00 3.43973
0 2 1 4 1 o 1.3111 1.0916 180.00 3.35452
-1 2 1 4 1 o 7.6600 6.4230 180.00 3.35091
3 1 0 4 1 o 0.9099 0.7822 180.00 3.25750
1 1 2 4 1 o 32.8082 28.3323 180.00 3.25235
-3 1 2 4 1 o 2.3762 2.1080 180.00 3.22627
-1 0 3 2 1 o 16.8849 15.8491 0.00 3.19116
1 2 1 4 1 o 40.9123 39.1202 180.00 3.08042
-2 2 1 4 1 o 37.9544 35.5903 0.00 3.07204
2 2 0 4 1 o 6.1011 4.0891 0.00 3.02083
3 0 1 2 1 o 23.8750 17.4767 0.00 2.98285
-3 0 3 2 1 o 0.0001 0.0000 180.00 2.93534
2 0 2 2 1 o 21.6159 22.0406 180.00 2.92490
-1 1 3 4 1 o 0.5105 0.5271 0.00 2.92055
-2 1 3 4 1 o 4.9217 5.0950 0.00 2.91341
-1 2 2 4 1 o 0.3821 0.3761 0.00 2.89878
-4 0 2 2 1 o 3.4363 3.3414 180.00 2.89651
0 2 2 4 1 o 22.5093 16.3658 180.00 2.80631
-2 2 2 4 1 o 2.0546 1.4786 0.00 2.79787
3 1 1 4 1 o 2.5126 2.5528 0.00 2.75834
-4 1 1 4 1 o 13.5241 15.1294 180.00 2.74435
0 1 3 4 1 o 0.8719 0.9575 0.00 2.73820
4 0 0 2 1 o 1.8563 1.9971 180.00 2.73500
-3 1 3 4 1 o 0.1825 0.1734 180.00 2.72064
2 1 2 4 1 o 18.2300 16.2518 0.00 2.71232
-4 1 2 4 1 o 15.5256 12.8448 180.00 2.68964
2 2 1 4 1 o 14.6304 12.1206 0.00 2.68593
-3 2 1 4 1 o 39.9293 33.5685 0.00 2.67669
1 0 3 2 1 o 98.6066 74.6057 180.00 2.60662
3 2 0 4 1 o 21.8873 18.3351 180.00 2.57035
1 2 2 4 1 o 103.0030 86.3438 180.00 2.56782
4 1 0 4 1 o 2.6791 2.1853 180.00 2.55884
-3 2 2 4 1 o 3.9674 3.1514 0.00 2.55492
1 1 3 4 1 o 100.7905 99.0154 0.00 2.45278
-4 1 3 4 1 o 53.6493 56.0982 0.00 2.43182
-2 0 4 2 1 o 0.5930 0.6074 180.00 2.41563
-1 2 3 4 1 o 0.0049 0.0048 0.00 2.39483
-2 2 3 4 1 o 32.8898 31.6631 180.00 2.39089
1 3 0 4 1 o 8.5315 6.3705 180.00 2.35885
-5 0 1 2 1 o 52.9072 41.5780 180.00 2.35200
0 3 1 4 1 o 2.3934 2.1740 0.00 2.33082
-1 3 1 4 1 o 24.8605 22.4044 0.00 2.32960
3 2 1 4 1 o 0.4206 0.2625 0.00 2.30293
-4 2 1 4 1 o 1.2759 0.8370 180.00 2.29477
-2 1 4 4 1 o 1.7861 1.2239 180.00 2.29167
0 2 3 4 1 o 1.8473 1.2758 0.00 2.29117
-3 2 3 4 1 o 17.5269 14.2116 0.00 2.28085
2 2 2 4 1 o 8.1364 6.8167 0.00 2.27594
3 1 2 4 1 o 17.1578 14.1371 0.00 2.27018
-4 2 2 4 1 o 0.6208 0.4779 0.00 2.26249
-5 1 2 4 1 o 4.7470 3.4548 180.00 2.25243
-1 1 4 4 1 o 0.5236 0.3822 180.00 2.24733
4 1 1 4 1 o 26.5005 19.3676 180.00 2.24685
-3 1 4 4 1 o 0.6458 0.4883 0.00 2.23867
-5 1 1 4 1 o 17.4284 13.2714 0.00 2.23713
1 3 1 4 1 o 15.9035 12.3116 180.00 2.23278
-5 0 3 2 1 o 40.4550 31.4020 0.00 2.23181
-2 3 1 4 1 o 0.6144 0.4791 180.00 2.22959
0 0 4 2 1 o 25.2959 19.5057 0.00 2.21807
2 3 0 4 1 o 27.5672 20.8512 180.00 2.20977
-4 0 4 2 1 o 10.5002 7.9576 180.00 2.20151
4 2 0 4 1 o 8.6571 7.5500 180.00 2.18297
-1 3 2 4 1 o 0.2208 0.1905 180.00 2.16063
2 1 3 4 1 o 15.5026 13.2813 180.00 2.15277
-5 1 3 4 1 o 32.3974 25.4328 180.00 2.13295
0 3 2 4 1 o 5.0924 3.7805 180.00 2.12152
0 1 4 4 1 o 7.1793 5.3251 180.00 2.12095
-2 3 2 4 1 o 26.7195 19.8052 180.00 2.11786
1 2 3 4 1 o 3.8802 2.8848 180.00 2.11600
-4 1 4 4 1 o 84.0580 66.0338 180.00 2.10646
-4 2 3 4 1 o 0.0000 0.0000 0.00 2.10249
5 1 0 4 1 o 6.6836 6.2660 0.00 2.09461



# powder data simulated using PLATON:

data_C6F10justsolved_simulated_1.9090

_publcif_pd_cifplot 'simulated 2021-03-25'

